VER
1

OBJSENSE
MIN

VAR
37 2
L+ 36
F 1

INT
36
0
1
2
3
4
5
6
7
8
9
10
11
12
13
14
15
16
17
18
19
20
21
22
23
24
25
26
27
28
29
30
31
32
33
34
35

CON
49 1
L+ 49

PSDCON
1
10

OBJACOORD
36
0 0.500000000
1 1.000000000
2 1.500000000
3 0.500000000
4 1.000000000
5 1.500000000
6 0.707106781
7 1.414213562
8 2.121320344
9 0.500000000
10 1.000000000
11 1.500000000
12 0.707106781
13 1.414213562
14 2.121320344
15 0.707106781
16 1.414213562
17 2.121320344
18 0.500000000
19 1.000000000
20 1.500000000
21 0.707106781
22 1.414213562
23 2.121320344
24 0.500000000
25 1.000000000
26 1.500000000
27 0.500000000
28 1.000000000
29 1.500000000
30 1.118033989
31 2.236067977
32 3.354101966
33 1.118033989
34 2.236067977
35 3.354101966

ACOORD
73
0 36 -1.000000000
1 0 -1.000000000
2 1 -1.000000000
3 2 -1.000000000
4 3 -1.000000000
5 4 -1.000000000
6 5 -1.000000000
7 6 -1.000000000
8 7 -1.000000000
9 8 -1.000000000
10 9 -1.000000000
11 10 -1.000000000
12 11 -1.000000000
13 12 -1.000000000
14 13 -1.000000000
15 14 -1.000000000
16 15 -1.000000000
17 16 -1.000000000
18 17 -1.000000000
19 18 -1.000000000
20 19 -1.000000000
21 20 -1.000000000
22 21 -1.000000000
23 22 -1.000000000
24 23 -1.000000000
25 24 -1.000000000
26 25 -1.000000000
27 26 -1.000000000
28 27 -1.000000000
29 28 -1.000000000
30 29 -1.000000000
31 30 -1.000000000
32 31 -1.000000000
33 32 -1.000000000
34 33 -1.000000000
35 34 -1.000000000
36 35 -1.000000000
37 0 -1.000000000
37 1 -1.000000000
37 2 -1.000000000
38 3 -1.000000000
38 4 -1.000000000
38 5 -1.000000000
39 6 -1.000000000
39 7 -1.000000000
39 8 -1.000000000
40 9 -1.000000000
40 10 -1.000000000
40 11 -1.000000000
41 12 -1.000000000
41 13 -1.000000000
41 14 -1.000000000
42 15 -1.000000000
42 16 -1.000000000
42 17 -1.000000000
43 18 -1.000000000
43 19 -1.000000000
43 20 -1.000000000
44 21 -1.000000000
44 22 -1.000000000
44 23 -1.000000000
45 24 -1.000000000
45 25 -1.000000000
45 26 -1.000000000
46 27 -1.000000000
46 28 -1.000000000
46 29 -1.000000000
47 30 -1.000000000
47 31 -1.000000000
47 32 -1.000000000
48 33 -1.000000000
48 34 -1.000000000
48 35 -1.000000000

BCOORD
49
0 0.100000000
1 1.000000000
2 1.000000000
3 1.000000000
4 1.000000000
5 1.000000000
6 1.000000000
7 1.000000000
8 1.000000000
9 1.000000000
10 1.000000000
11 1.000000000
12 1.000000000
13 1.000000000
14 1.000000000
15 1.000000000
16 1.000000000
17 1.000000000
18 1.000000000
19 1.000000000
20 1.000000000
21 1.000000000
22 1.000000000
23 1.000000000
24 1.000000000
25 1.000000000
26 1.000000000
27 1.000000000
28 1.000000000
29 1.000000000
30 1.000000000
31 1.000000000
32 1.000000000
33 1.000000000
34 1.000000000
35 1.000000000
36 1.000000000
37 1.000000000
38 1.000000000
39 1.000000000
40 1.000000000
41 1.000000000
42 1.000000000
43 1.000000000
44 1.000000000
45 1.000000000
46 1.000000000
47 1.000000000
48 1.000000000

HCOORD
140
0 36 0 0 2.000000000
0 36 1 1 2.000000000
0 0 3 3 105.000000000
0 0 5 3 -105.000000000
0 0 5 5 105.000000000
0 1 3 3 210.000000000
0 1 5 3 -210.000000000
0 1 5 5 210.000000000
0 2 3 3 315.000000000
0 2 5 3 -315.000000000
0 2 5 5 315.000000000
0 3 2 2 105.000000000
0 3 6 2 -105.000000000
0 3 6 6 105.000000000
0 4 2 2 210.000000000
0 4 6 2 -210.000000000
0 4 6 6 210.000000000
0 5 2 2 315.000000000
0 5 6 2 -315.000000000
0 5 6 6 315.000000000
0 6 2 2 26.250000000
0 6 3 2 26.250000000
0 6 8 2 -26.250000000
0 6 9 2 -26.250000000
0 6 3 3 26.250000000
0 6 8 3 -26.250000000
0 6 9 3 -26.250000000
0 6 8 8 26.250000000
0 6 9 8 26.250000000
0 6 9 9 26.250000000
0 7 2 2 52.500000000
0 7 3 2 52.500000000
0 7 8 2 -52.500000000
0 7 9 2 -52.500000000
0 7 3 3 52.500000000
0 7 8 3 -52.500000000
0 7 9 3 -52.500000000
0 7 8 8 52.500000000
0 7 9 8 52.500000000
0 7 9 9 52.500000000
0 8 2 2 78.750000000
0 8 3 2 78.750000000
0 8 8 2 -78.750000000
0 8 9 2 -78.750000000
0 8 3 3 78.750000000
0 8 8 3 -78.750000000
0 8 9 3 -78.750000000
0 8 8 8 78.750000000
0 8 9 8 78.750000000
0 8 9 9 78.750000000
0 9 2 2 105.000000000
0 10 2 2 210.000000000
0 11 2 2 315.000000000
0 12 2 2 26.250000000
0 12 3 2 -26.250000000
0 12 3 3 26.250000000
0 13 2 2 52.500000000
0 13 3 2 -52.500000000
0 13 3 3 52.500000000
0 14 2 2 78.750000000
0 14 3 2 -78.750000000
0 14 3 3 78.750000000
0 15 4 4 26.250000000
0 15 5 4 -26.250000000
0 15 6 4 -26.250000000
0 15 7 4 26.250000000
0 15 5 5 26.250000000
0 15 6 5 26.250000000
0 15 7 5 -26.250000000
0 15 6 6 26.250000000
0 15 7 6 -26.250000000
0 15 7 7 26.250000000
0 16 4 4 52.500000000
0 16 5 4 -52.500000000
0 16 6 4 -52.500000000
0 16 7 4 52.500000000
0 16 5 5 52.500000000
0 16 6 5 52.500000000
0 16 7 5 -52.500000000
0 16 6 6 52.500000000
0 16 7 6 -52.500000000
0 16 7 7 52.500000000
0 17 4 4 78.750000000
0 17 5 4 -78.750000000
0 17 6 4 -78.750000000
0 17 7 4 78.750000000
0 17 5 5 78.750000000
0 17 6 5 78.750000000
0 17 7 5 -78.750000000
0 17 6 6 78.750000000
0 17 7 6 -78.750000000
0 17 7 7 78.750000000
0 18 4 4 105.000000000
0 18 8 4 -105.000000000
0 18 8 8 105.000000000
0 19 4 4 210.000000000
0 19 8 4 -210.000000000
0 19 8 8 210.000000000
0 20 4 4 315.000000000
0 20 8 4 -315.000000000
0 20 8 8 315.000000000
0 21 4 4 26.250000000
0 21 5 4 26.250000000
0 21 5 5 26.250000000
0 22 4 4 52.500000000
0 22 5 4 52.500000000
0 22 5 5 52.500000000
0 23 4 4 78.750000000
0 23 5 4 78.750000000
0 23 5 5 78.750000000
0 24 4 4 105.000000000
0 25 4 4 210.000000000
0 26 4 4 315.000000000
0 27 7 7 105.000000000
0 27 9 7 -105.000000000
0 27 9 9 105.000000000
0 28 7 7 210.000000000
0 28 9 7 -210.000000000
0 28 9 9 210.000000000
0 29 7 7 315.000000000
0 29 9 7 -315.000000000
0 29 9 9 315.000000000
0 30 6 6 16.800000000
0 30 7 6 -8.400000000
0 30 7 7 4.200000000
0 31 6 6 33.600000000
0 31 7 6 -16.800000000
0 31 7 7 8.400000000
0 32 6 6 50.400000000
0 32 7 6 -25.200000000
0 32 7 7 12.600000000
0 33 8 8 16.800000000
0 33 9 8 8.400000000
0 33 9 9 4.200000000
0 34 8 8 33.600000000
0 34 9 8 16.800000000
0 34 9 9 8.400000000
0 35 8 8 50.400000000
0 35 9 8 25.200000000
0 35 9 9 12.600000000

DCOORD
2
0 8 1 0.040000000
0 9 0 -0.300000000
